(set-logic ALL)
(declare-const n_VAR Int)
(assert (not (= n_VAR 0)))
(assert (not (= n_VAR 1)))
(assert (< 0 n_VAR))
(assert (< 1 n_VAR))
(assert (< 2 n_VAR))
(assert (< 3 n_VAR))
(assert (< 4 n_VAR))
(assert (< 5 n_VAR))
(assert (< 6 n_VAR))
(assert (< 7 n_VAR))
(assert (< 8 n_VAR))
(assert (< 9 n_VAR))
(assert (< 10 n_VAR))
(assert (< 11 n_VAR))
(assert (< 12 n_VAR))
(assert (< 13 n_VAR))
(assert (< 14 n_VAR))
(assert (< 15 n_VAR))
(assert (< 16 n_VAR))
(assert (< 17 n_VAR))
(assert (< 18 n_VAR))
(assert (< 19 n_VAR))
(assert (< 20 n_VAR))
(assert (< 21 n_VAR))
(assert (< 22 n_VAR))
(assert (< 23 n_VAR))
(assert (< 24 n_VAR))
(assert (< 25 n_VAR))
(assert (< 26 n_VAR))
(assert (< 27 n_VAR))
(assert (< 28 n_VAR))
(assert (< 29 n_VAR))
(assert (< 30 n_VAR))
(assert (< 31 n_VAR))
(assert (< 32 n_VAR))
(assert (< 33 n_VAR))
(assert (< 34 n_VAR))
(assert (< 35 n_VAR))
(assert (< 36 n_VAR))
(assert (< 37 n_VAR))
(assert (< 38 n_VAR))
(assert (< 39 n_VAR))
(assert (< 40 n_VAR))
(assert (< 41 n_VAR))
(assert (< 42 n_VAR))
(assert (< 43 n_VAR))
(assert (< 44 n_VAR))
(check-sat)
(get-value (n_VAR))
